n = 10;
colSum = [0,3,4,7,6,2,4,2,6,2];
rowSum = [2,3,7,3,6,4,5,2,4,0];

groups =
[| 1,2,2,2,2,3,4,4,4,4
 | 1,1,2,2,3,3,3,4,4,5
 | 1,1,3,3,3,3,4,4,4,5
 | 1,1,6,6,5,5,5,5,5,5
 | 1,1,6,6,6,5,5,7,8,5
 | 1,1,6,1,6,6,6,7,8,8
 | 1,1,1,1,6,9,7,7,7,7
 | 1,1,10,9,6,9,7,7,7,7
 | 1,10,10,9,9,9,9,7,9,7
 | 10,10,9,9,9,9,9,9,9,7
 |];
